n = 10;
m = 5;

opiniones_iniciales = [6, 1, 0, 1, 2];

valores_opiniones = [0.011, 0.214, 0.29, 0.829, 0.944];

costos_extras = [5.59, 5.501, 9.646, 2.293, 9.309];

costos_desplazamiento = [|0.0, 0.604, 0.052, 4.814, 4.611
    | 2.146, 0.0, 0.381, 2.747, 4.802
    | 3.46, 1.832, 0.0, 1.072, 3.702
    | 0.438, 2.62, 4.623, 0.0, 2.605
    | 2.246, 1.2, 4.828, 0.547, 0.0 |];

ct = 29.35;

maxMovs = 9;
